
Gurobi 7.5.2 (linux64) logging started Sat Jun 23 16:25:59 2018

Changed value of parameter LogFile to result/ilp/simNo_2-n_100-m_40-s_4-minVAF_0.05-cov_2000-k_2-fn_0.25-fp_0.0001-na_0.15.ILP.gurobiSolverLog
   Prev: gurobi.log  Default: 
Changed value of parameter TimeLimit to 86400.0
   Prev: 1e+100  Min: 0.0  Max: 1e+100  Default: 1e+100
Optimize a model with 1265601 rows, 330440 columns and 3489120 nonzeros
Variable types: 0 continuous, 330440 integer (330440 binary)
Coefficient statistics:
  Matrix range     [2e-03, 3e+00]
  Objective range  [1e+00, 2e+01]
  Bounds range     [1e+00, 1e+00]
  RHS range        [2e-01, 2e+00]
Found heuristic solution: objective -16683.71401
Presolve removed 303413 rows and 208398 columns (presolve time = 5s) ...
Presolve removed 304017 rows and 208398 columns (presolve time = 10s) ...
Presolve removed 304017 rows and 208398 columns (presolve time = 15s) ...
Presolve removed 304017 rows and 208398 columns (presolve time = 21s) ...
Presolve removed 304017 rows and 208398 columns (presolve time = 25s) ...
Presolve removed 304017 rows and 208398 columns (presolve time = 30s) ...
Presolve removed 304017 rows and 208398 columns (presolve time = 37s) ...
Presolve removed 304017 rows and 208398 columns
Presolve time: 39.09s
Presolved: 961584 rows, 122042 columns, 2663350 nonzeros
Variable types: 0 continuous, 122042 integer (122042 binary)
Presolve removed 0 rows and 0 columns (presolve time = 5s) ...
Presolved: 122042 rows, 1083626 columns, 2785392 nonzeros

Presolve removed 122042 rows and 1083626 columns

Root simplex log...

Iteration    Objective       Primal Inf.    Dual Inf.      Time
       0    4.4257888e+01   0.000000e+00   1.099850e+05     51s
   13812   -2.3904358e+02   0.000000e+00   8.603191e+05     55s
   22587   -2.5995163e+02   0.000000e+00   1.090671e+06     60s
   30192   -2.7842633e+02   0.000000e+00   1.145505e+06     65s
   38967   -2.9332689e+02   0.000000e+00   3.160218e+05     70s
   46572   -3.1419273e+02   0.000000e+00   2.725028e+05     75s
   54762   -3.2595790e+02   0.000000e+00   1.999925e+06     80s
   62952   -3.3807842e+02   0.000000e+00   7.638841e+06     85s
   70557   -3.4673019e+02   0.000000e+00   3.586050e+05     90s
   77577   -3.5722981e+02   0.000000e+00   6.397197e+05     95s
   85182   -3.6588184e+02   0.000000e+00   2.485739e+05    100s
   94542   -3.8108261e+02   0.000000e+00   2.842492e+05    105s
  105072   -3.9610823e+02   0.000000e+00   1.325589e+06    111s
  112092   -4.0208132e+02   0.000000e+00   1.481893e+05    115s
  120282   -4.1256905e+02   0.000000e+00   9.267432e+06    120s
  130227   -4.2616655e+02   0.000000e+00   7.477183e+04    125s
  139587   -4.3689427e+02   0.000000e+00   1.799569e+05    130s
  148362   -4.4435356e+02   0.000000e+00   1.488810e+06    135s
  155382   -4.4911620e+02   0.000000e+00   5.197341e+05    140s
  164157   -4.5361721e+02   0.000000e+00   7.880452e+04    145s
  172932   -4.6101581e+02   0.000000e+00   3.048914e+05    150s
  180537   -4.6374613e+02   0.000000e+00   1.586806e+05    155s
  189312   -4.6959681e+02   0.000000e+00   3.705878e+05    160s
  195853   -4.7383326e+02   0.000000e+00   0.000000e+00    168s
  195853   -4.7383326e+02   0.000000e+00   0.000000e+00    171s

Root relaxation: objective -4.738333e+02, 195853 iterations, 128.81 seconds
Total elapsed time = 233.12s
Total elapsed time = 289.91s

    Nodes    |    Current Node    |     Objective Bounds      |     Work
 Expl Unexpl |  Obj  Depth IntInf | Incumbent    BestBd   Gap | It/Node Time

     0     0 -473.83326    0 2301 -16683.714 -473.83326  97.2%     -  334s
H    0     0                    -598.8435362 -473.83326  20.9%     -  635s
     0     0 -477.17729    0 2314 -598.84354 -477.17729  20.3%     -  827s
H    0     0                    -595.4995056 -477.17729  19.9%     - 1273s
     0     0 -477.28292    0 2319 -595.49951 -477.28292  19.9%     - 1287s
     0     0 -477.45521    0 2316 -595.49951 -477.45521  19.8%     - 1302s
     0     0 -477.52176    0 2332 -595.49951 -477.52176  19.8%     - 1318s
     0     0 -480.97540    0 2351 -595.49951 -480.97540  19.2%     - 1574s
     0     0 -481.18658    0 2378 -595.49951 -481.18658  19.2%     - 2338s
     0     0 -481.26387    0 2381 -595.49951 -481.26387  19.2%     - 2364s
     0     0 -482.17217    0 2375 -595.49951 -482.17217  19.0%     - 2416s
     0     0 -482.24384    0 2399 -595.49951 -482.24384  19.0%     - 2878s
     0     0 -482.24384    0 2400 -595.49951 -482.24384  19.0%     - 2891s
     0     0 -483.36019    0 2377 -595.49951 -483.36019  18.8%     - 2949s
     0     0 -483.37408    0 2368 -595.49951 -483.37408  18.8%     - 3587s
     0     0 -483.37408    0 2367 -595.49951 -483.37408  18.8%     - 3598s
     0     0 -484.22022    0 2376 -595.49951 -484.22022  18.7%     - 3645s
     0     0 -484.91117    0 2390 -595.49951 -484.91117  18.6%     - 4218s
     0     0 -484.92788    0 2383 -595.49951 -484.92788  18.6%     - 4239s
     0     0 -485.62620    0 2400 -595.49951 -485.62620  18.5%     - 4295s
     0     0 -485.62620    0 2401 -595.49951 -485.62620  18.5%     - 4769s
     0     0 -487.44577    0 2423 -595.49951 -487.44577  18.1%     - 4847s
     0     0 -488.02215    0 2403 -595.49951 -488.02215  18.0%     - 5566s
     0     0 -488.02758    0 2409 -595.49951 -488.02758  18.0%     - 5581s
     0     0 -488.02758    0 2415 -595.49951 -488.02758  18.0%     - 5593s
     0     0 -488.91913    0 2426 -595.49951 -488.91913  17.9%     - 5659s
     0     0 -489.14824    0 2417 -595.49951 -489.14824  17.9%     - 6179s
     0     0 -489.14824    0 2420 -595.49951 -489.14824  17.9%     - 6190s
     0     0 -490.57778    0 2405 -595.49951 -490.57778  17.6%     - 6250s
     0     0 -490.79310    0 2409 -595.49951 -490.79310  17.6%     - 6808s
     0     0 -490.81980    0 2412 -595.49951 -490.81980  17.6%     - 6825s
     0     0 -490.87705    0 2425 -595.49951 -490.87705  17.6%     - 6848s
     0     0 -490.88612    0 2428 -595.49951 -490.88612  17.6%     - 6861s
     0     0 -490.88612    0 2427 -595.49951 -490.88612  17.6%     - 6874s
     0     0 -491.39787    0 2404 -595.49951 -491.39787  17.5%     - 6927s
     0     0 -491.43759    0 2406 -595.49951 -491.43759  17.5%     - 7368s
     0     0 -491.43987    0 2416 -595.49951 -491.43987  17.5%     - 7383s
     0     0 -491.48073    0 2408 -595.49951 -491.48073  17.5%     - 7402s
     0     0 -491.50014    0 2405 -595.49951 -491.50014  17.5%     - 7421s
     0     0 -492.48623    0 2401 -595.49951 -492.48623  17.3%     - 7480s
     0     0 -492.58319    0 2398 -595.49951 -492.58319  17.3%     - 8060s
     0     0 -492.75014    0 2402 -595.49951 -492.75014  17.3%     - 8086s
     0     0 -492.75495    0 2404 -595.49951 -492.75495  17.3%     - 8099s
     0     0 -492.75495    0 2404 -595.49951 -492.75495  17.3%     - 8108s
     0     0 -493.84681    0 2378 -595.49951 -493.84681  17.1%     - 8158s
     0     0 -493.88237    0 2399 -595.49951 -493.88237  17.1%     - 8620s
     0     0 -493.88328    0 2401 -595.49951 -493.88328  17.1%     - 8630s
     0     0 -494.82667    0 2389 -595.49951 -494.82667  16.9%     - 8680s
     0     0 -495.14278    0 2401 -595.49951 -495.14278  16.9%     - 9080s
     0     0 -495.30337    0 2412 -595.49951 -495.30337  16.8%     - 9099s
     0     0 -495.35289    0 2417 -595.49951 -495.35289  16.8%     - 9113s
     0     0 -495.38213    0 2417 -595.49951 -495.38213  16.8%     - 9123s
     0     0 -495.39226    0 2419 -595.49951 -495.39226  16.8%     - 9132s
     0     0 -495.39666    0 2418 -595.49951 -495.39666  16.8%     - 9142s
     0     0 -495.39666    0 2420 -595.49951 -495.39666  16.8%     - 9150s
     0     0 -497.12279    0 2314 -595.49951 -497.12279  16.5%     - 9218s
     0     0 -497.26853    0 2332 -595.49951 -497.26853  16.5%     - 9827s
     0     0 -497.26853    0 2328 -595.49951 -497.26853  16.5%     - 9839s
     0     0 -497.79787    0 2291 -595.49951 -497.79787  16.4%     - 9889s
     0     0 -497.83310    0 2287 -595.49951 -497.83310  16.4%     - 10445s
     0     0 -497.88168    0 2303 -595.49951 -497.88168  16.4%     - 10463s
     0     0 -497.88259    0 2304 -595.49951 -497.88259  16.4%     - 10473s
     0     0 -498.42876    0 2311 -595.49951 -498.42876  16.3%     - 10517s
     0     0 -498.64980    0 2302 -595.49951 -498.64980  16.3%     - 11153s
     0     0 -498.73789    0 2309 -595.49951 -498.73789  16.2%     - 11170s
     0     0 -498.76392    0 2314 -595.49951 -498.76392  16.2%     - 11180s
     0     0 -498.78812    0 2320 -595.49951 -498.78812  16.2%     - 11190s
     0     0 -498.79969    0 2321 -595.49951 -498.79969  16.2%     - 11200s
     0     0 -498.80599    0 2319 -595.49951 -498.80599  16.2%     - 11210s
     0     0 -498.80599    0 2318 -595.49951 -498.80599  16.2%     - 11218s
     0     0 -499.31650    0 2329 -595.49951 -499.31650  16.2%     - 11269s
     0     0 -499.58007    0 2326 -595.49951 -499.58007  16.1%     - 11739s
     0     0 -499.82157    0 2315 -595.49951 -499.82157  16.1%     - 11767s
     0     0 -499.83364    0 2325 -595.49951 -499.83364  16.1%     - 11778s
     0     0 -499.83680    0 2326 -595.49951 -499.83680  16.1%     - 11787s
     0     0 -499.85877    0 2327 -595.49951 -499.85877  16.1%     - 11801s
     0     0 -499.86158    0 2334 -595.49951 -499.86158  16.1%     - 11814s
     0     0 -499.86342    0 2328 -595.49951 -499.86342  16.1%     - 11823s
     0     0 -501.08484    0 2408 -595.49951 -501.08484  15.9%     - 11883s
     0     0 -501.39521    0 2574 -595.49951 -501.39521  15.8%     - 12384s
     0     0 -501.46674    0 2584 -595.49951 -501.46674  15.8%     - 12399s
     0     0 -501.49687    0 2588 -595.49951 -501.49687  15.8%     - 12413s
     0     0 -501.54237    0 2586 -595.49951 -501.54237  15.8%     - 12423s
     0     0 -501.63034    0 2585 -595.49951 -501.63034  15.8%     - 12440s
     0     0 -501.63041    0 2592 -595.49951 -501.63041  15.8%     - 12449s
     0     0 -502.85543    0 2566 -595.49951 -502.85543  15.6%     - 12506s
     0     0 -502.87876    0 2595 -595.49951 -502.87876  15.6%     - 12878s
     0     0 -503.17091    0 2577 -595.49951 -503.17091  15.5%     - 12904s
     0     0 -503.17585    0 2597 -595.49951 -503.17585  15.5%     - 12917s
     0     0 -503.25420    0 2601 -595.49951 -503.25420  15.5%     - 12933s
     0     0 -503.25420    0 2601 -595.49951 -503.25420  15.5%     - 12942s
     0     0 -505.02342    0 2486 -595.49951 -505.02342  15.2%     - 13019s
     0     0 -505.18162    0 2473 -595.49951 -505.18162  15.2%     - 13540s
     0     0 -505.21032    0 2507 -595.49951 -505.21032  15.2%     - 13558s
     0     0 -505.23958    0 2609 -595.49951 -505.23958  15.2%     - 13574s
     0     0 -505.26024    0 2523 -595.49951 -505.26024  15.2%     - 13587s
     0     0 -505.26549    0 2523 -595.49951 -505.26549  15.2%     - 13598s
     0     0 -505.26744    0 2522 -595.49951 -505.26744  15.2%     - 13607s
     0     0 -506.05365    0 2517 -595.49951 -506.05365  15.0%     - 13667s
     0     0 -506.23110    0 2514 -595.49951 -506.23110  15.0%     - 13958s
     0     0 -506.26677    0 2525 -595.49951 -506.26677  15.0%     - 13974s
     0     0 -506.28456    0 2524 -595.49951 -506.28456  15.0%     - 13986s
     0     0 -506.28962    0 2520 -595.49951 -506.28962  15.0%     - 13997s
     0     0 -506.29161    0 2527 -595.49951 -506.29161  15.0%     - 14006s
     0     0 -508.15675    0 2608 -595.49951 -508.15675  14.7%     - 14088s
     0     0 -508.29162    0 2617 -595.49951 -508.29162  14.6%     - 14434s
     0     0 -508.32155    0 2605 -595.49951 -508.32155  14.6%     - 14455s
     0     0 -508.34443    0 2613 -595.49951 -508.34443  14.6%     - 14469s
     0     0 -508.36099    0 2625 -595.49951 -508.36099  14.6%     - 14482s
     0     0 -508.36209    0 2627 -595.49951 -508.36209  14.6%     - 14490s
     0     0 -508.82656    0 2623 -595.49951 -508.82656  14.6%     - 14536s
     0     0 -509.11085    0 2517 -595.49951 -509.11085  14.5%     - 15017s
     0     0 -509.15757    0 2620 -595.49951 -509.15757  14.5%     - 15044s
     0     0 -509.17471    0 2776 -595.49951 -509.17471  14.5%     - 15062s
     0     0 -509.17471    0 2777 -595.49951 -509.17471  14.5%     - 15070s
     0     0 -510.39016    0 2610 -595.49951 -510.39016  14.3%     - 15298s
     0     0 -510.69279    0 2603 -595.49951 -510.69279  14.2%     - 15752s
     0     0 -510.80577    0 2510 -595.49951 -510.80577  14.2%     - 15806s
     0     0 -510.85792    0 2526 -595.49951 -510.85792  14.2%     - 15836s
     0     0 -510.87543    0 2545 -595.49951 -510.87543  14.2%     - 15857s
     0     0 -510.87854    0 2541 -595.49951 -510.87854  14.2%     - 15868s
     0     0 -511.77568    0 2610 -595.49951 -511.77568  14.1%     - 16152s
     0     0 -511.92428    0 2622 -595.49951 -511.92428  14.0%     - 16635s
     0     0 -511.96313    0 2638 -595.49951 -511.96313  14.0%     - 16651s
     0     0 -511.96313    0 2636 -595.49951 -511.96313  14.0%     - 16661s
     0     0 -512.44600    0 2641 -595.49951 -512.44600  13.9%     - 16723s
     0     0 -512.50794    0 2659 -595.49951 -512.50794  13.9%     - 17103s
     0     0 -512.55754    0 2661 -595.49951 -512.55754  13.9%     - 17125s
     0     0 -512.57803    0 2639 -595.49951 -512.57803  13.9%     - 17139s
     0     0 -512.58131    0 2657 -595.49951 -512.58131  13.9%     - 17149s
     0     0 -513.49077    0 2633 -595.49951 -513.49077  13.8%     - 17416s
     0     0 -513.72047    0 2617 -595.49951 -513.72047  13.7%     - 17916s
     0     0 -513.84727    0 2609 -595.49951 -513.84727  13.7%     - 18001s
     0     0 -513.86370    0 2635 -595.49951 -513.86370  13.7%     - 18020s
     0     0 -513.86876    0 2615 -595.49951 -513.86876  13.7%     - 18031s
     0     0 -513.86891    0 2622 -595.49951 -513.86891  13.7%     - 18039s
     0     0 -515.55057    0 2630 -595.49951 -515.55057  13.4%     - 18360s
     0     0 -515.61840    0 2636 -595.49951 -515.61840  13.4%     - 18774s
     0     0 -515.62112    0 2630 -595.49951 -515.62112  13.4%     - 18793s
     0     0 -516.17620    0 2618 -595.49951 -516.17620  13.3%     - 18979s
     0     0 -516.36089    0 2635 -595.49951 -516.36089  13.3%     - 19611s
     0     0 -516.42014    0 2639 -595.49951 -516.42014  13.3%     - 19691s
     0     0 -516.43221    0 2646 -595.49951 -516.43221  13.3%     - 19709s
     0     0 -516.43275    0 2658 -595.49951 -516.43275  13.3%     - 19721s
     0     0 -516.67746    0 2627 -595.49951 -516.67746  13.2%     - 19790s
     0     0 -516.72700    0 2642 -595.49951 -516.72700  13.2%     - 20183s
     0     0 -516.73887    0 2631 -595.49951 -516.73887  13.2%     - 20210s
     0     0 -516.75640    0 2641 -595.49951 -516.75640  13.2%     - 20246s
     0     0 -516.76662    0 2642 -595.49951 -516.76662  13.2%     - 20264s
     0     0 -516.76880    0 2641 -595.49951 -516.76880  13.2%     - 20277s
     0     0 -517.36260    0 2642 -595.49951 -517.36260  13.1%     - 20503s
     0     0 -517.45063    0 2638 -595.49951 -517.45063  13.1%     - 20959s
     0     0 -517.52613    0 2631 -595.49951 -517.52613  13.1%     - 21043s
     0     0 -517.53368    0 2629 -595.49951 -517.53368  13.1%     - 21061s
     0     0 -517.53743    0 2682 -595.49951 -517.53743  13.1%     - 21079s
     0     0 -518.07009    0 2627 -595.49951 -518.07009  13.0%     - 21273s
     0     0 -518.32444    0 2653 -595.49951 -518.32444  13.0%     - 21788s
     0     0 -518.38406    0 2634 -595.49951 -518.38406  12.9%     - 21862s
     0     0 -518.42453    0 2664 -595.49951 -518.42453  12.9%     - 21956s
     0     0 -518.43208    0 2635 -595.49951 -518.43208  12.9%     - 21980s
     0     0 -518.43219    0 2637 -595.49951 -518.43219  12.9%     - 22008s
     0     0 -518.78614    0 2615 -595.49951 -518.78614  12.9%     - 22918s
     0     0 -519.08154    0 2639 -595.49951 -519.08154  12.8%     - 23568s
     0     0 -519.17052    0 2634 -595.49951 -519.17052  12.8%     - 23610s
     0     0 -519.23785    0 2642 -595.49951 -519.23785  12.8%     - 23676s
     0     0 -519.26175    0 2639 -595.49951 -519.26175  12.8%     - 23706s
     0     0 -519.27291    0 2640 -595.49951 -519.27291  12.8%     - 23731s
     0     0 -519.27461    0 2645 -595.49951 -519.27461  12.8%     - 23743s
     0     0 -519.81960    0 2621 -595.49951 -519.81960  12.7%     - 23947s
     0     0 -519.92401    0 2620 -595.49951 -519.92401  12.7%     - 24385s
     0     0 -519.93718    0 2645 -595.49951 -519.93718  12.7%     - 24405s
     0     0 -519.93954    0 2647 -595.49951 -519.93954  12.7%     - 24417s
     0     0 -520.16741    0 2641 -595.49951 -520.16741  12.7%     - 24480s
     0     0 -520.21745    0 2657 -595.49951 -520.21745  12.6%     - 24869s
     0     0 -520.24200    0 2781 -595.49951 -520.24200  12.6%     - 24885s
     0     0 -520.26591    0 2644 -595.49951 -520.26591  12.6%     - 24903s
     0     0 -520.27542    0 2651 -595.49951 -520.27542  12.6%     - 24915s
     0     0 -520.27782    0 2644 -595.49951 -520.27782  12.6%     - 24924s
     0     0 -520.60983    0 2633 -595.49951 -520.60983  12.6%     - 25000s
     0     0 -520.82818    0 2645 -595.49951 -520.82818  12.5%     - 25482s
     0     0 -520.99012    0 2647 -595.49951 -520.99012  12.5%     - 25599s
     0     0 -521.02671    0 2651 -595.49951 -521.02671  12.5%     - 25640s
     0     0 -521.04317    0 2649 -595.49951 -521.04317  12.5%     - 25662s
     0     0 -521.04548    0 2657 -595.49951 -521.04548  12.5%     - 25673s
     0     0 -521.65845    0 2783 -595.49951 -521.65845  12.4%     - 26039s
     0     0 -521.93632    0 2656 -595.49951 -521.93632  12.4%     - 26757s
     0     0 -522.03098    0 2780 -595.49951 -522.03098  12.3%     - 26920s
     0     0 -522.06539    0 2664 -595.49951 -522.06539  12.3%     - 26965s
     0     0 -522.06722    0 2662 -595.49951 -522.06722  12.3%     - 26976s
     0     0 -522.24389    0 2779 -595.49951 -522.24389  12.3%     - 27048s
     0     0 -522.30213    0 2880 -595.49951 -522.30213  12.3%     - 27397s
     0     0 -522.30403    0 2888 -595.49951 -522.30403  12.3%     - 27412s
     0     0 -522.88231    0 2865 -595.49951 -522.88231  12.2%     - 27621s
     0     0 -523.27052    0 2869 -595.49951 -523.27052  12.1%     - 28266s
     0     0 -523.33243    0 2864 -595.49951 -523.33243  12.1%     - 28299s
     0     0 -523.35653    0 2867 -595.49951 -523.35653  12.1%     - 28323s
     0     0 -523.35806    0 2868 -595.49951 -523.35806  12.1%     - 28337s
     0     0 -523.65037    0 2861 -595.49951 -523.65037  12.1%     - 28468s
     0     0 -523.97971    0 2870 -595.49951 -523.97971  12.0%     - 28951s
     0     0 -524.05157    0 2871 -595.49951 -524.05157  12.0%     - 28993s
     0     0 -524.05491    0 2878 -595.49951 -524.05491  12.0%     - 29005s
     0     0 -524.37196    0 2864 -595.49951 -524.37196  11.9%     - 29075s
     0     0 -524.45438    0 2878 -595.49951 -524.45438  11.9%     - 29647s
     0     0 -524.46951    0 2873 -595.49951 -524.46951  11.9%     - 29666s
     0     0 -524.47076    0 2874 -595.49951 -524.47076  11.9%     - 29678s
     0     0 -524.65112    0 2859 -595.49951 -524.65112  11.9%     - 29801s
     0     0 -524.78240    0 2868 -595.49951 -524.78240  11.9%     - 30284s
     0     0 -524.79317    0 2861 -595.49951 -524.79317  11.9%     - 30314s
     0     0 -524.80536    0 2869 -595.49951 -524.80536  11.9%     - 30346s
     0     0 -524.80965    0 2868 -595.49951 -524.80965  11.9%     - 30359s
     0     0 -524.95935    0 2866 -595.49951 -524.95935  11.8%     - 30463s
     0     0 -524.98752    0 2868 -595.49951 -524.98752  11.8%     - 31051s
     0     0 -525.00936    0 2863 -595.49951 -525.00936  11.8%     - 31074s
     0     0 -525.01736    0 2875 -595.49951 -525.01736  11.8%     - 31092s
     0     0 -525.02072    0 2880 -595.49951 -525.02072  11.8%     - 31100s
     0     0 -525.32670    0 2872 -595.49951 -525.32670  11.8%     - 31193s
     0     0 -525.41685    0 2876 -595.49951 -525.41685  11.8%     - 31606s
     0     0 -525.46362    0 2879 -595.49951 -525.46362  11.8%     - 31642s
     0     0 -525.47020    0 2879 -595.49951 -525.47020  11.8%     - 31656s
     0     0 -525.48691    0 2878 -595.49951 -525.48691  11.8%     - 31669s
     0     0 -525.48707    0 2881 -595.49951 -525.48707  11.8%     - 31678s
     0     0 -525.69480    0 2868 -595.49951 -525.69480  11.7%     - 31754s
     0     0 -525.72721    0 2874 -595.49951 -525.72721  11.7%     - 32345s
     0     0 -525.73421    0 2875 -595.49951 -525.73421  11.7%     - 32364s
     0     0 -525.73637    0 2875 -595.49951 -525.73637  11.7%     - 32374s
     0     0 -525.76070    0 2697 -595.49951 -525.76070  11.7%     - 32405s
     0     0 -525.78702    0 2696 -595.49951 -525.78702  11.7%     - 32787s
     0     0 -525.79240    0 2697 -595.49951 -525.79240  11.7%     - 32802s
     0     0 -525.79261    0 2706 -595.49951 -525.79261  11.7%     - 32809s
     0     0 -525.80923    0 2700 -595.49951 -525.80923  11.7%     - 32846s
     0     0 -525.80923    0 2652 -595.49951 -525.80923  11.7%     - 33062s
     0     2 -525.80946    0 2650 -595.49951 -525.80946  11.7%     - 33678s
     1     3 -526.98918    1 2540 -595.49951 -525.81436  11.7% 11123 33747s
     2     4 -529.46555    1 2197 -595.49951 -526.99046  11.5% 13944 33862s
     3     5 -530.64661    2 2327 -595.49951 -526.99046  11.5%  9506 33878s
     4     6 -533.54669    3 2438 -595.49951 -526.99046  11.5%  7665 33907s
     5     7 -536.43250    4 2542 -595.49951 -526.99046  11.5%  6323 33928s
     6     8 -560.69107    4 1226 -595.49951 -526.99046  11.5%  6992 34014s
     7     9 -562.78109    5 1215 -595.49951 -526.99046  11.5%  6111 34027s
     8    10 -564.22088    6 1292 -595.49951 -526.99046  11.5%  5433 34035s
    11    13 -565.14978    9 1228 -595.49951 -526.99046  11.5%  4010 34044s
    12    14 -589.11533    9  874 -595.49951 -526.99046  11.5%  6050 34378s
    13    15 -590.78734   10  862 -595.49951 -526.99046  11.5%  5621 34383s
    14    14     cutoff   10      -595.49951 -526.99046  11.5%  5272 34393s
    15    15 -593.26231   11  971 -595.49951 -526.99046  11.5%  4978 34402s
    16    14     cutoff   11      -595.49951 -526.99046  11.5%  4698 34408s
    17    15 -593.57404   12  889 -595.49951 -526.99046  11.5%  4425 34410s
    20    16     cutoff   14      -595.49951 -526.99046  11.5%  3773 34415s
    26    16 -553.75774    2 2575 -595.49951 -526.99057  11.5%  4428 34789s
    27    17 -555.71541    3 2562 -595.49951 -526.99057  11.5%  4290 34879s
    28    18 -556.55439    4 2562 -595.49951 -526.99057  11.5%  4161 34895s
    29    19 -559.79588    5 2675 -595.49951 -526.99057  11.5%  4058 34924s
    30    20 -592.03042    5 2940 -595.49951 -526.99057  11.5%  5088 35395s
    31    21 -562.87898    6 2795 -595.49951 -526.99057  11.5%  5140 35467s
    32    20     cutoff    6      -595.49951 -526.99057  11.5%  5603 35731s
    33    21 -570.80231    7 2863 -595.49951 -526.99057  11.5%  5924 35929s
    34    22 -594.82749    7 2944 -595.49951 -526.99057  11.5%  6601 36303s
    35    23 -571.71261    8 2851 -595.49951 -526.99057  11.5%  6577 36350s
    36    24 -591.00923    8 1531 -595.49951 -526.99057  11.5%  7107 36708s
    37    25 -592.54191    9 1488 -595.49951 -526.99057  11.5%  6945 36725s
    38    26 -593.65659   10 1505 -595.49951 -526.99057  11.5%  6786 36733s
    39    27 -594.38113   11 1484 -595.49951 -526.99057  11.5%  6622 36737s
    42    24     cutoff   11      -595.49951 -526.99057  11.5%  6160 36740s
    43    23     cutoff   10      -595.49951 -526.99057  11.5%  6035 36746s
    44    24 -529.38822    2 2567 -595.49951 -529.38822  11.1%  6152 36824s
    45    25 -535.50587    3 2671 -595.49951 -529.38982  11.1% 13242 47550s
    46    26 -557.35391    3 2582 -595.49951 -529.47728  11.1% 29078 81306s
    47    27 -559.31162    4 2575 -595.49951 -529.47728  11.1% 28611 81455s
    48    28 -561.53969    5 2709 -595.49951 -529.47728  11.1% 28202 81634s

Cutting planes:
  Gomory: 5
  MIR: 10
  StrongCG: 1
  Zero half: 1303

Explored 49 nodes (2147500 simplex iterations) in 86400.69 seconds
Thread count was 1 (of 80 available processors)

Solution count 3: -595.5 -598.844 -16683.7 

Time limit reached
Best objective -5.954995055761e+02, best bound -5.294772832997e+02, gap 11.0869%
